coords = array2d(1..25, 1..2, [223, 232, 46, 344, 693, 675, 959, 700, 399, 621,
    781, 247, 440, 487, 361, 235, 869, 296, 488, 22, 395, 847, 160,
    268, 704, 470, 328, 125, 746, 624, 463, 410, 355, 628, 420, 249,
    497, 665, 890, 58, 670, 754, 381, 80, 463, 332, 763, 288, 397,
    380]);

n = 25;

